p min 104 274
n 1 3
n 94 -1
n 95 -1
n 96 -1
a 1 2 0 1 0
a 1 33 0 1 0
a 1 34 0 1 0
a 2 3 0 3 0
a 2 34 0 3 79840
a 2 55 0 3 -100
a 3 4 0 3 0
a 3 56 0 3 -100
a 3 100 0 1 0
a 4 5 0 3 0
a 4 57 0 3 -100
a 4 100 0 1 39199
a 5 6 0 3 0
a 5 58 0 3 -100
a 5 100 0 1 100664
a 6 7 0 3 0
a 6 59 0 3 -100
a 6 100 0 1 138312
a 7 8 0 3 0
a 7 35 0 3 79600
a 7 60 0 3 -100
a 7 98 0 1 0
a 7 100 0 1 197343
a 8 9 0 3 0
a 8 36 0 3 79561
a 8 61 0 3 -100
a 8 98 0 1 39199
a 9 10 0 3 0
a 9 37 0 3 79521
a 9 62 0 3 -100
a 9 98 0 1 100664
a 9 99 0 1 0
a 10 11 0 3 0
a 10 38 0 3 79481
a 10 63 0 3 -100
a 10 98 0 1 138312
a 10 99 0 1 39198
a 11 12 0 3 0
a 11 39 0 3 79441
a 11 64 0 3 -100
a 11 98 0 1 197343
a 11 99 0 1 100663
a 12 13 0 3 0
a 12 40 0 3 79402
a 12 65 0 3 -100
a 12 98 0 1 233500
a 12 99 0 1 138311
a 13 14 0 3 0
a 13 41 0 3 79362
a 13 66 0 3 -100
a 13 99 0 1 197342
a 14 15 0 3 0
a 14 67 0 3 -100
a 14 99 0 1 233499
a 15 16 0 3 0
a 15 42 0 3 78769
a 15 71 0 3 -100
a 16 17 0 3 0
a 16 43 0 3 78690
a 16 72 0 3 -100
a 17 18 0 3 0
a 17 44 0 3 78572
a 17 74 0 3 -100
a 17 101 0 1 0
a 18 19 0 3 0
a 18 45 0 3 78533
a 18 75 0 3 -100
a 18 101 0 1 39199
a 19 20 0 3 0
a 19 46 0 3 78493
a 19 76 0 3 -100
a 19 101 0 1 100664
a 20 21 0 3 0
a 20 47 0 3 78454
a 20 77 0 3 -100
a 20 101 0 1 138312
a 21 22 0 3 0
a 21 48 0 3 78415
a 21 78 0 3 -100
a 21 101 0 1 197343
a 22 23 0 3 0
a 22 49 0 3 78376
a 22 79 0 3 -100
a 22 101 0 1 233500
a 23 24 0 3 0
a 23 80 0 3 -100
a 23 101 0 1 290194
a 24 25 0 3 0
a 24 81 0 3 -100
a 24 101 0 1 324919
a 25 26 0 3 0
a 25 82 0 3 -100
a 25 101 0 1 379368
a 26 27 0 3 0
a 26 84 0 3 -100
a 26 103 0 1 0
a 27 28 0 3 0
a 27 85 0 3 -100
a 27 103 0 1 39199
a 28 29 0 3 0
a 28 86 0 3 -100
a 28 103 0 1 100664
a 29 30 0 3 0
a 29 87 0 3 -100
a 29 103 0 1 138312
a 30 31 0 3 0
a 30 88 0 3 -100
a 30 103 0 1 197343
a 31 32 0 3 0
a 31 50 0 3 77557
a 31 89 0 3 -100
a 31 103 0 1 233500
a 32 96 0 3 -100
a 33 5 0 3 79840
a 33 34 0 3 0
a 33 55 0 3 -100
a 34 9 0 3 79680
a 34 35 0 3 0
a 34 58 0 3 -100
a 35 36 0 3 0
a 35 64 0 3 -100
a 35 97 0 1 0
a 36 37 0 3 0
a 36 65 0 3 -100
a 36 97 0 1 39199
a 37 38 0 3 0
a 37 66 0 3 -100
a 37 97 0 1 100664
a 38 39 0 3 0
a 38 67 0 3 -100
a 38 97 0 1 138312
a 39 40 0 3 0
a 39 68 0 3 -100
a 39 97 0 1 197343
a 40 41 0 3 0
a 40 69 0 3 -100
a 40 97 0 1 233500
a 41 15 0 3 79085
a 41 42 0 3 0
a 41 70 0 3 -100
a 41 97 0 1 290194
a 42 20 0 3 78611
a 42 43 0 3 0
a 42 73 0 3 -100
a 43 22 0 3 78533
a 43 44 0 3 0
a 43 75 0 3 -100
a 44 25 0 3 78415
a 44 45 0 3 0
a 44 78 0 3 -100
a 44 102 0 1 0
a 45 46 0 3 0
a 45 79 0 3 -100
a 45 102 0 1 39199
a 46 26 0 3 78337
a 46 47 0 3 0
a 46 80 0 3 -100
a 46 102 0 1 100664
a 47 27 0 3 78297
a 47 48 0 3 0
a 47 81 0 3 -100
a 47 102 0 1 138312
a 48 28 0 3 78258
a 48 49 0 3 0
a 48 82 0 3 -100
a 48 102 0 1 197343
a 49 29 0 3 78219
a 49 50 0 3 0
a 49 83 0 3 -100
a 49 102 0 1 233500
a 50 51 0 3 0
a 50 90 0 3 -100
a 50 104 0 1 0
a 51 52 0 3 0
a 51 91 0 3 -100
a 51 104 0 1 39199
a 52 53 0 3 0
a 52 92 0 3 -100
a 52 104 0 1 100664
a 53 32 0 3 77247
a 53 54 0 3 0
a 53 93 0 3 -100
a 53 104 0 1 138312
a 54 96 0 3 -100
a 55 56 0 3 -100
a 56 55 0 3 19980
a 56 57 0 3 -100
a 57 56 0 3 9985
a 57 58 0 3 -100
a 58 57 0 3 9980
a 58 59 0 3 -100
a 59 58 0 3 9975
a 59 60 0 3 -100
a 60 59 0 3 9970
a 60 61 0 3 -100
a 61 60 0 3 9965
a 61 62 0 3 -100
a 62 61 0 3 9960
a 62 63 0 3 -100
a 63 62 0 3 9955
a 63 64 0 3 -100
a 64 63 0 3 9950
a 64 65 0 3 -100
a 65 64 0 3 9945
a 65 66 0 3 -100
a 66 65 0 3 9940
a 66 67 0 3 -100
a 67 66 0 3 9935
a 67 68 0 3 -100
a 68 67 0 3 9930
a 68 69 0 3 -100
a 69 68 0 3 9925
a 69 70 0 3 -100
a 70 69 0 3 9920
a 70 71 0 3 -100
a 71 70 0 3 69199
a 71 72 0 3 -100
a 72 71 0 3 59136
a 72 73 0 3 -100
a 73 72 0 3 19692
a 73 74 0 3 -100
a 74 73 0 3 9841
a 74 75 0 3 -100
a 75 74 0 3 9836
a 75 76 0 3 -100
a 76 75 0 3 9831
a 76 77 0 3 -100
a 77 76 0 3 9826
a 77 78 0 3 -100
a 78 77 0 3 9821
a 78 79 0 3 -100
a 79 78 0 3 9816
a 79 80 0 3 -100
a 80 79 0 3 9811
a 80 81 0 3 -100
a 81 80 0 3 9806
a 81 82 0 3 -100
a 82 81 0 3 9801
a 82 83 0 3 -100
a 83 82 0 3 9797
a 83 84 0 3 -100
a 84 83 0 3 9792
a 84 85 0 3 -100
a 85 84 0 3 9787
a 85 86 0 3 -100
a 86 85 0 3 9782
a 86 87 0 3 -100
a 87 86 0 3 9777
a 87 88 0 3 -100
a 88 87 0 3 9772
a 88 89 0 3 -100
a 89 88 0 3 9767
a 89 90 0 3 -100
a 90 89 0 3 145420
a 90 91 0 3 -100
a 91 90 0 3 9689
a 91 92 0 3 -100
a 92 91 0 3 9684
a 92 93 0 3 -100
a 93 92 0 3 9680
a 93 94 0 3 -100
a 94 93 0 3 9675
a 94 95 0 3 -100
a 95 94 0 3 19331
a 95 96 0 3 -100
a 96 95 0 3 19311
a 97 43 0 1 -298424
a 98 16 0 1 -239280
a 99 42 0 1 -238944
a 100 15 0 1 -219683
a 101 51 0 1 -393730
a 102 54 0 1 -255400
a 103 32 0 1 -254588
a 104 54 0 1 -164725
